NAME : tsp_478_sol.txt
COMMENT : OR-Tools Guided Local Search
TYPE : TOUR
DIMENSION : 50
COST : 6237
STATUS : ROUTING_SUCCESS
GAP : 0.00% (Reference Solution)
TOUR_SECTION
1
42
44
37
5
10
19
15
40
47
36
38
26
46
28
45
7
23
4
17
18
29
22
25
30
50
6
43
3
14
2
41
13
9
24
31
8
34
33
27
16
12
20
48
35
32
21
11
39
49
-1
